(declare-const v0 Bool)
(declare-const v1 Bool)
(declare-const v2 Bool)
(declare-const v3 Bool)
(declare-const v4 Bool)
(assert (edge (or v1 (not v0)) (or v0 (not v1))))
(assert (edge (or v0 v1 v2) (or v0 (not v1) (not v3))))
(assert (edge (or v3 (not v2)) v3))
(assert (edge true (or v0 (not v3) (not v4))))
(assert (edge v4 (or v3 (not v0))))
(assert (not (edge (or v0 v1 (not v4)) v0)))